NAME : ./TSPLIB/eil.tsp.optbc.tour
COMMENT : Optimal tour for eil.tsp
TYPE : TOUR
DIMENSION : 280
TOUR_SECTION
16
21
29
2
20
35
36
3
28
31
26
8
22
1
32
11
38
5
37
17
4
18
47
12
46
51
27
6
48
23
7
43
24
14
25
13
41
40
19
42
44
15
45
33
39
10
49
9
30
34
50
